c description: Random 3-CNF over 15 variables and 95 clauses
c generator: CNFgen (0.9.0)
c copyright: (C) 2012-2020 Massimo Lauria <massimo.lauria@uniroma1.it>
c url: https://massimolauria.net/cnfgen
c
p cnf 15 95
4 12 -14 0
3 4 -8 0
-8 11 14 0
-10 11 12 0
8 -11 15 0
-9 10 -12 0
1 2 -11 0
-5 -7 -10 0
-2 -6 -15 0
1 5 7 0
-2 12 -15 0
4 6 -8 0
1 7 -9 0
1 -7 8 0
-6 -9 13 0
-7 -14 15 0
8 9 -15 0
3 -5 -11 0
5 7 13 0
5 10 -11 0
4 -10 14 0
3 -10 -13 0
7 -8 13 0
-5 6 8 0
-5 11 15 0
1 -6 12 0
-1 4 13 0
10 11 14 0
-3 4 -10 0
2 6 15 0
3 8 -9 0
6 -8 13 0
-7 -8 15 0
4 6 7 0
1 5 13 0
1 9 -11 0
5 -7 -15 0
-2 -8 9 0
-9 10 15 0
-1 5 6 0
-7 -8 -11 0
-5 -8 12 0
-4 7 15 0
6 9 15 0
7 -9 -12 0
2 3 -11 0
5 10 -12 0
-7 14 -15 0
1 6 -11 0
3 5 -8 0
10 12 14 0
10 13 15 0
9 -10 -11 0
-2 -12 14 0
-3 -13 15 0
1 -2 -8 0
-5 -14 -15 0
-3 -14 15 0
-4 12 14 0
-3 -10 -13 0
4 -5 13 0
-1 -7 9 0
-1 -10 15 0
5 -13 15 0
11 -13 -15 0
-3 5 10 0
-11 -13 14 0
2 8 11 0
6 7 -12 0
5 -14 -15 0
3 5 13 0
-9 11 12 0
10 12 -14 0
2 -11 14 0
-10 13 -14 0
2 7 -11 0
-6 -7 -10 0
1 3 -8 0
-1 -2 15 0
3 -10 -12 0
-8 11 13 0
-1 9 -14 0
-2 11 14 0
2 8 -14 0
-7 -8 14 0
-11 13 14 0
4 -8 13 0
3 5 11 0
7 -8 -10 0
-6 -10 -14 0
7 11 -15 0
2 6 -9 0
-3 -4 -10 0
-6 9 -13 0
3 -11 12 0